20J6M/DAT/20J6MNLL-4.dat
20 6
12.7795 12.7795
23.8581 23.8581
20.8611 20.8611
19.9259 19.9259
30.081 30.081
18.0916 18.0916
22.297 22.297
27.6272 27.6272
22.9363 22.9363
21.672 21.672
22.4403 22.4403
27.17 27.17
23.187 23.187
22.5982 22.5982
22.2622 22.2622
22.9111 22.9111
31.2933 31.2933
28.193 28.193
22.834 22.834
21.5411 21.5411
77.4266