20J6M/SOL/20J6MNLL-4.sol
solution status: optimal solution found
objective value:                              77.4266
x#1#2                                               1 	(obj:0)
x#2#4                                               1 	(obj:0)
x#3#2                                               1 	(obj:0)
x#4#2                                               1 	(obj:0)
x#5#6                                               1 	(obj:0)
x#6#2                                               1 	(obj:0)
x#7#1                                               1 	(obj:0)
x#8#4                                0.29638906584815 	(obj:0)
x#8#5                                0.70361093415185 	(obj:0)
x#9#5                                               1 	(obj:0)
x#10#2                              0.266172942045035 	(obj:0)
x#10#3                              0.733827057954965 	(obj:0)
x#11#1                              0.210358150292108 	(obj:0)
x#11#3                              0.789641849707892 	(obj:0)
x#12#4                                              1 	(obj:0)
x#13#1                              0.214641825160651 	(obj:0)
x#13#4                              0.785358174839349 	(obj:0)
x#14#1                                              1 	(obj:0)
x#15#3                                              1 	(obj:0)
x#16#5                                              1 	(obj:0)
x#17#6                              0.999990413283354 	(obj:0)
x#18#5                              0.430617529173909 	(obj:0)
x#18#6                              0.569382470826091 	(obj:0)
x#19#1                                              1 	(obj:0)
x#20#3                                              1 	(obj:0)
z                                             77.4266 	(obj:1)
